This is Ipopt version 3.13.2, running with linear solver mumps.
NOTE: Other linear solvers might be more efficient (see Ipopt documentation).

Number of nonzeros in equality constraint Jacobian...:   528190
Number of nonzeros in inequality constraint Jacobian.:   737044
Number of nonzeros in Lagrangian Hessian.............:        0

Total number of variables............................:     8004
                     variables with only lower bounds:      800
                variables with lower and upper bounds:     1200
                     variables with only upper bounds:        0
Total number of equality constraints.................:     5594
Total number of inequality constraints...............:     9600
        inequality constraints with only lower bounds:        0
   inequality constraints with lower and upper bounds:     4800
        inequality constraints with only upper bounds:     4800

iter    objective    inf_pr   inf_du lg(mu)  ||d||  lg(rg) alpha_du alpha_pr  ls
   0  1.0000000e+02 2.45e+00 3.20e+00  -3.0 0.00e+00    -  0.00e+00 0.00e+00   0
   1  9.9053068e+01 2.33e+00 3.04e+00  -3.0 5.98e+00    -  6.57e-02 5.46e-02h  1
   2  9.9629128e+01 2.29e+00 2.96e+00  -3.0 4.44e+00    -  1.03e-02 1.60e-02h  1
   3  9.9914503e+01 2.21e+00 7.93e+00  -3.0 3.71e+00    -  1.53e-02 3.89e-02h  1
   4  9.9984714e+01 2.21e+00 6.23e+00  -3.0 3.11e+00    -  1.34e-02 7.52e-04h  8
   5  9.9991802e+01 2.21e+00 6.08e+00  -3.0 3.37e+00    -  1.17e-02 1.47e-04h  9
   6  9.9994198e+01 2.21e+00 6.10e+00  -3.0 3.68e+00    -  2.02e-02 1.84e-05h 12
   7  1.0197281e+02 2.15e+00 5.95e+00  -3.0 3.79e+00    -  2.38e-02 2.38e-02s 18
   8  1.0290463e+02 2.14e+00 5.89e+00  -3.0 5.16e+00    -  8.49e-03 8.49e-03s 18
   9  1.0426383e+02 2.11e+00 6.12e+00  -3.0 5.14e+00    -  1.36e-02 0.00e+00S 18
iter    objective    inf_pr   inf_du lg(mu)  ||d||  lg(rg) alpha_du alpha_pr  ls
  10  1.0832239e+02 2.03e+00 7.01e+00  -3.0 3.78e+00    -  9.14e-02 3.78e-02h  2
  11  1.1088182e+02 1.95e+00 6.72e+00  -3.0 3.27e+00    -  3.64e-02 3.78e-02h  3
  12  1.1442659e+02 1.87e+00 6.29e+00  -3.0 2.98e+00    -  1.00e-01 4.13e-02h  4
  13  1.2044672e+02 1.73e+00 5.68e+00  -3.0 2.85e+00    -  1.01e-01 7.30e-02h  3
  14  1.2967200e+02 1.53e+00 5.71e+00  -3.0 2.68e+00    -  8.88e-02 1.15e-01h  2
  15  1.3080164e+02 1.48e+00 6.21e+00  -3.0 1.47e+00    -  7.85e-02 3.46e-02h  1
  16  1.5112927e+02 9.81e-01 7.82e+00  -3.0 1.83e+00    -  8.96e-02 3.26e-01H  1
  17  1.6791307e+02 8.57e-01 5.90e+00  -3.0 1.46e+00    -  2.74e-01 3.92e-01h  1
  18  1.8899921e+02 9.64e-01 4.15e+00  -3.0 9.41e-01    -  4.12e-01 9.49e-01h  1
  19  1.7791689e+02 1.41e-01 1.40e+00  -3.0 1.76e-01    -  6.31e-01 1.00e+00f  1
iter    objective    inf_pr   inf_du lg(mu)  ||d||  lg(rg) alpha_du alpha_pr  ls
  20  1.5198015e+02 4.91e-01 1.07e+00  -3.0 5.90e-01    -  2.88e-01 1.00e+00f  1
  21  1.4555127e+02 3.06e-01 7.33e-01  -3.0 3.95e-01    -  2.96e-01 1.00e+00h  1
  22  1.4113559e+02 2.51e-01 5.30e-01  -3.0 5.54e-01    -  3.00e-01 5.47e-01h  1
  23  1.3707290e+02 2.29e-01 4.06e-01  -3.0 7.84e-01    -  2.68e-01 5.09e-01h  1
  24  1.3507459e+02 1.83e-01 3.13e-01  -3.0 1.01e+00    -  2.33e-01 2.98e-01h  1
  25  1.3211172e+02 1.30e-01 2.14e-01  -3.0 1.20e+00    -  2.78e-01 4.51e-01h  1
  26  1.2957641e+02 1.01e-01 1.31e-01  -3.0 8.74e-01    -  2.80e-01 5.01e-01h  1
  27  1.2800553e+02 6.30e-02 1.06e-01  -3.0 7.38e-01    -  5.04e-01 4.39e-01h  1
  28  1.2645796e+02 1.51e-01 5.60e-02  -3.0 1.16e+00    -  6.28e-01 4.50e-01h  1
  29  1.2517933e+02 8.60e-02 7.34e-02  -3.0 5.09e-01    -  5.81e-01 5.51e-01h  1
iter    objective    inf_pr   inf_du lg(mu)  ||d||  lg(rg) alpha_du alpha_pr  ls
  30  1.2382701e+02 5.49e-02 1.18e-01  -3.0 4.54e-01    -  9.99e-01 1.00e+00h  1
  31  1.2353377e+02 1.48e-01 1.31e-01  -3.0 5.09e-01    -  9.99e-01 1.00e+00h  1
  32  1.2369163e+02 2.88e-02 4.84e-02  -3.0 2.94e-01    -  1.00e+00 1.00e+00h  1
  33  1.2373603e+02 1.58e-03 4.11e-02  -3.0 6.82e-02    -  1.00e+00 1.00e+00h  1
  34  1.2375568e+02 8.14e-04 2.04e-02  -3.0 1.02e-01    -  1.00e+00 1.00e+00h  1
  35  1.2378415e+02 1.80e-04 5.36e-02  -3.0 3.12e-01    -  1.00e+00 1.00e+00H  1
  36  1.2377250e+02 1.90e-03 3.73e-02  -3.0 1.18e-01    -  1.00e+00 1.00e+00h  1
  37  1.2376689e+02 1.12e-03 1.61e-02  -3.0 8.05e-02    -  1.00e+00 1.00e+00h  1
  38  1.2376892e+02 1.44e-04 1.02e-02  -3.0 4.94e-02    -  1.00e+00 1.00e+00h  1
  39  1.2376977e+02 3.01e-05 1.99e-03  -3.0 1.93e-02    -  1.00e+00 1.00e+00h  1
iter    objective    inf_pr   inf_du lg(mu)  ||d||  lg(rg) alpha_du alpha_pr  ls
  40  1.2159510e+02 7.07e-03 8.34e-02  -4.5 3.79e-01    -  8.19e-01 6.29e-01f  1
  41  1.2096297e+02 5.87e-03 8.93e-02  -4.5 5.65e-01    -  7.83e-01 3.48e-01h  1
  42  1.2043998e+02 2.30e-02 1.00e-01  -4.5 1.08e+00    -  1.12e-01 3.27e-01h  1
  43  1.2010141e+02 2.04e-02 4.28e-02  -4.5 1.28e+00    -  4.88e-01 2.93e-01h  1
  44  1.1991893e+02 5.73e-02 4.49e-02  -4.5 1.19e+00    -  4.11e-01 2.98e-01h  1
  45  1.1976944e+02 2.66e-02 2.77e-02  -4.5 6.12e-01    -  5.76e-01 4.84e-01h  1
  46  1.1969188e+02 3.91e-02 4.19e-02  -4.5 8.53e-01    -  6.11e-01 3.94e-01h  1
  47  1.1965065e+02 1.79e-02 6.04e-02  -4.5 2.90e-01    -  7.35e-01 5.86e-01h  1
  48  1.1962889e+02 6.43e-03 1.77e-02  -4.5 1.38e-01    -  9.59e-01 1.00e+00h  1
  49  1.1963044e+02 2.39e-03 1.10e-02  -4.5 8.43e-02    -  1.00e+00 1.00e+00h  1
iter    objective    inf_pr   inf_du lg(mu)  ||d||  lg(rg) alpha_du alpha_pr  ls
  50  1.1962859e+02 8.42e-04 1.46e-02  -4.5 1.20e-01    -  1.00e+00 1.00e+00h  1
  51  1.1962459e+02 1.31e-03 1.46e-02  -4.5 2.26e-01    -  1.00e+00 1.00e+00h  1
  52  1.1961975e+02 5.83e-03 4.23e-02  -4.5 3.35e-01    -  1.00e+00 1.00e+00h  1
  53  1.1961837e+02 5.58e-03 2.62e-02  -4.5 1.06e-01    -  1.00e+00 1.00e+00h  1
  54  1.1962178e+02 1.41e-03 1.18e-02  -4.5 5.18e-02    -  1.00e+00 1.00e+00h  1
  55  1.1962312e+02 4.51e-05 1.83e-03  -4.5 3.12e-02    -  1.00e+00 1.00e+00h  1
  56  1.1962316e+02 1.58e-07 1.26e-03  -4.5 2.75e-02    -  1.00e+00 1.00e+00H  1
  57  1.1962353e+02 1.59e-07 2.61e-02  -4.5 2.13e-01    -  1.00e+00 1.00e+00H  1
  58  1.1961950e+02 1.79e-03 9.00e-03  -4.5 7.16e-02    -  1.00e+00 1.00e+00h  1
  59  1.1962121e+02 6.56e-04 5.06e-03  -4.5 3.96e-02    -  1.00e+00 1.00e+00h  1
iter    objective    inf_pr   inf_du lg(mu)  ||d||  lg(rg) alpha_du alpha_pr  ls
  60  1.1962167e+02 3.54e-05 3.71e-03  -4.5 1.65e-02    -  1.00e+00 1.00e+00h  1
  61  1.1962165e+02 1.32e-05 2.61e-03  -4.5 1.73e-02    -  1.00e+00 1.00e+00h  1
  62  1.1962154e+02 3.81e-07 3.12e-03  -4.5 3.90e-02    -  1.00e+00 1.00e+00H  1
  63  1.1962135e+02 9.70e-08 5.56e-03  -4.5 1.00e-01    -  1.00e+00 1.00e+00H  1
  64  1.1962109e+02 1.86e-04 6.29e-03  -4.5 4.61e-02    -  1.00e+00 1.00e+00h  1
  65  1.1962105e+02 6.36e-05 4.29e-03  -4.5 2.77e-02    -  1.00e+00 1.00e+00h  1
  66  1.1962116e+02 1.20e-05 1.29e-03  -4.5 1.19e-02    -  1.00e+00 1.00e+00h  1
  67  1.1962119e+02 7.31e-06 5.29e-04  -4.5 1.54e-02    -  1.00e+00 1.00e+00h  1
  68  1.1962120e+02 2.94e-08 1.23e-03  -4.5 2.72e-02    -  1.00e+00 1.00e+00H  1
  69  1.1962120e+02 3.49e-08 1.12e-03  -4.5 5.22e-02    -  1.00e+00 1.00e+00H  1
iter    objective    inf_pr   inf_du lg(mu)  ||d||  lg(rg) alpha_du alpha_pr  ls
  70  1.1962131e+02 8.44e-10 4.61e-03  -4.5 1.34e-01    -  1.00e+00 1.00e+00H  1
  71  1.1962109e+02 2.13e-05 1.62e-03  -4.5 4.92e-02    -  1.00e+00 1.00e+00h  1
  72  1.1962115e+02 2.64e-05 3.43e-03  -4.5 1.15e-02    -  1.00e+00 1.00e+00h  1
  73  1.1962117e+02 7.94e-06 5.15e-04  -4.5 2.37e-02    -  1.00e+00 1.00e+00h  1
  74  1.1962122e+02 3.12e-07 2.35e-04  -4.5 9.14e-03    -  1.00e+00 1.00e+00h  1
  75  1.1953869e+02 3.34e-04 7.17e-03  -6.8 1.12e-01    -  7.23e-01 5.78e-01f  1
  76  1.1950794e+02 7.01e-04 1.09e-02  -6.8 1.61e-01    -  4.50e-01 4.38e-01h  1
  77  1.1949541e+02 7.81e-04 1.96e-02  -6.8 2.15e-01    -  6.28e-01 2.92e-01h  1
  78  1.1948830e+02 1.24e-03 2.36e-02  -6.8 1.96e-01    -  4.01e-01 2.39e-01h  1
  79  1.1948318e+02 2.99e-03 2.71e-02  -6.8 2.06e-01    -  3.13e-01 2.31e-01h  1
iter    objective    inf_pr   inf_du lg(mu)  ||d||  lg(rg) alpha_du alpha_pr  ls
  80  1.1947852e+02 3.57e-03 2.79e-02  -6.8 3.97e-01    -  3.35e-01 2.83e-01h  1
  81  1.1947729e+02 3.06e-03 2.63e-02  -6.8 5.19e-01    -  4.46e-01 1.02e-01h  1
  82  1.1947428e+02 1.92e-03 1.88e-02  -6.8 3.61e-01    -  2.29e-01 3.27e-01h  1
  83  1.1947330e+02 1.57e-03 1.63e-02  -6.8 2.80e-01    -  2.00e-01 1.69e-01h  1
  84  1.1947232e+02 1.08e-03 1.09e-02  -6.8 1.98e-01    -  2.43e-01 2.22e-01h  1
  85  1.1947154e+02 6.87e-04 8.60e-03  -6.8 1.78e-01    -  3.09e-01 2.39e-01h  1
  86  1.1947025e+02 3.82e-04 5.00e-03  -6.8 1.82e-01    -  3.74e-01 5.38e-01h  1
  87  1.1946991e+02 2.88e-04 7.29e-03  -6.8 2.85e-01    -  6.69e-01 2.62e-01h  1
  88  1.1946955e+02 3.44e-03 6.11e-03  -6.8 3.36e-01    -  3.27e-01 3.31e-01f  1
  89  1.1946934e+02 1.18e-04 2.53e-03  -6.8 1.76e-01    -  3.89e-01 3.61e-01h  1
iter    objective    inf_pr   inf_du lg(mu)  ||d||  lg(rg) alpha_du alpha_pr  ls
  90  1.1946928e+02 3.36e-04 9.66e-03  -6.8 1.07e-01    -  5.76e-01 2.00e-01h  1
  91  1.1946923e+02 7.41e-05 2.81e-03  -6.8 1.00e-01    -  5.54e-01 2.36e-01f  1
  92  1.1946918e+02 7.28e-05 2.26e-03  -6.8 9.06e-02    -  1.94e-01 1.96e-01h  1
  93  1.1946915e+02 1.80e-04 1.95e-03  -6.8 2.73e-02    -  1.00e+00 4.89e-01h  1
  94  1.1946911e+02 9.94e-05 4.72e-03  -6.8 3.64e-02    -  1.00e+00 1.00e+00h  1
  95  1.1946906e+02 1.55e-04 1.78e-03  -6.8 1.70e-02    -  1.00e+00 1.00e+00h  1
  96  1.1946914e+02 1.21e-05 9.51e-04  -6.8 5.33e-03    -  1.00e+00 1.00e+00h  1
  97  1.1946915e+02 2.84e-07 3.22e-04  -6.8 6.32e-03    -  1.00e+00 1.00e+00h  1
  98  1.1946914e+02 4.96e-06 4.54e-03  -6.8 1.26e-01    -  1.00e+00 1.86e-01h  2
  99  1.1946913e+02 5.99e-06 7.44e-03  -6.8 1.32e+00    -  1.64e-01 1.04e-02h  4
iter    objective    inf_pr   inf_du lg(mu)  ||d||  lg(rg) alpha_du alpha_pr  ls
 100  1.1946905e+02 1.69e-03 8.53e-03  -6.8 1.13e+00    -  4.18e-01 8.94e-02h  1
 101  1.1946894e+02 1.03e-03 3.26e-03  -6.8 2.56e-01    -  7.37e-01 4.33e-01h  1
 102  1.1946887e+02 1.02e-03 3.17e-03  -6.8 3.10e-01    -  3.91e-01 1.76e-01h  1
 103  1.1946878e+02 5.52e-04 2.78e-03  -6.8 3.74e-02    -  4.91e-01 5.72e-01h  1
 104  1.1946880e+02 2.50e-04 8.44e-03  -6.8 2.88e-02    -  7.40e-02 1.00e+00h  1
 105  1.1946883e+02 4.98e-04 5.62e-03  -6.8 3.37e-02    -  4.17e-01 8.78e-01h  1
 106  1.1946883e+02 4.83e-04 7.58e-03  -6.8 2.33e-02    -  1.00e+00 3.12e-02h  6
 107  1.1946886e+02 1.68e-04 3.35e-03  -6.8 3.06e-02    -  1.00e+00 1.00e+00h  1
 108  1.1946883e+02 2.81e-04 3.49e-03  -6.8 4.74e-02    -  4.19e-01 3.70e-01h  1
 109  1.1946884e+02 2.72e-04 3.37e-03  -6.8 1.22e-02    -  1.03e-01 3.12e-02h  6
iter    objective    inf_pr   inf_du lg(mu)  ||d||  lg(rg) alpha_du alpha_pr  ls
 110  1.1946892e+02 1.06e-04 8.07e-03  -6.8 1.38e-02    -  5.34e-01 1.00e+00h  1
 111  1.1946895e+02 3.10e-05 1.87e-03  -6.8 7.16e-03    -  1.00e+00 1.00e+00h  1
 112  1.1946895e+02 1.11e-06 5.74e-04  -6.8 4.85e-03    -  1.00e+00 1.00e+00h  1
 113  1.1946894e+02 7.23e-06 6.38e-03  -6.8 1.34e-01    -  9.75e-01 9.22e-02h  4
 114  1.1946890e+02 5.99e-05 3.27e-03  -6.8 6.17e-01    -  4.54e-01 5.71e-02h  3
 115  1.1946889e+02 6.68e-05 5.06e-03  -6.8 7.31e-01    -  7.61e-01 1.98e-02h  4
 116  1.1946874e+02 9.01e-04 8.12e-03  -6.8 8.31e-01    -  4.01e-01 2.15e-01h  1
 117  1.1946826e+02 1.39e-03 7.32e-03  -6.8 2.17e-01    -  3.22e-01 7.95e-01h  1
 118  1.1946790e+02 1.42e-03 7.40e-03  -6.8 4.57e-01    -  9.28e-02 1.01e-01h  1
 119  1.1946821e+02 6.01e-04 7.90e-03  -6.8 8.64e-02    -  1.98e-01 5.76e-01h  1
iter    objective    inf_pr   inf_du lg(mu)  ||d||  lg(rg) alpha_du alpha_pr  ls
 120  1.1946819e+02 4.75e-04 6.85e-03  -6.8 1.96e-01    -  2.89e-01 3.37e-01f  1
 121  1.1946850e+02 6.19e-04 1.06e-02  -6.8 3.44e-02    -  2.28e-02 8.87e-01h  1
 122  1.1946858e+02 3.80e-04 1.99e-03  -6.8 3.21e-02    -  8.32e-01 9.63e-01h  1
 123  1.1946859e+02 3.66e-04 1.28e-02  -6.8 1.31e-02    -  7.32e-01 3.59e-02h  5
 124  1.1946879e+02 2.03e-06 1.55e-03  -6.8 4.94e-03    -  8.47e-01 1.00e+00h  1
 125  1.1946880e+02 3.21e-07 2.22e-04  -6.8 3.13e-03    -  1.00e+00 1.00e+00h  1
 126  1.1946879e+02 2.62e-06 5.28e-04  -6.8 1.03e-02    -  1.00e+00 1.00e+00h  1
 127  1.1946877e+02 1.21e-04 2.04e-03  -6.8 5.81e-02    -  8.29e-01 6.62e-01h  1
 128  1.1946875e+02 8.40e-05 2.78e-03  -6.8 1.67e-02    -  1.00e+00 1.00e+00f  1
 129  1.1946874e+02 1.71e-04 1.76e-03  -6.8 3.53e-02    -  8.07e-01 1.00e+00h  1
iter    objective    inf_pr   inf_du lg(mu)  ||d||  lg(rg) alpha_du alpha_pr  ls
 130  1.1946875e+02 1.14e-04 4.92e-03  -6.8 2.05e-02    -  7.28e-01 9.69e-01h  1
 131  1.1946870e+02 9.74e-05 3.43e-04  -6.8 1.97e-02    -  1.00e+00 1.00e+00f  1
 132  1.1946878e+02 8.53e-06 5.76e-04  -6.8 4.14e-03    -  1.00e+00 1.00e+00h  1
 133  1.1946878e+02 4.51e-06 5.79e-05  -6.8 3.18e-03    -  1.00e+00 1.00e+00h  1
 134  1.1946879e+02 1.18e-08 2.93e-05  -6.8 4.02e-04    -  1.00e+00 1.00e+00h  1
 135  1.1946879e+02 2.39e-09 2.50e-04  -6.8 5.39e-03    -  1.00e+00 1.00e+00H  1
 136  1.1946886e+02 3.13e-10 2.20e-03  -6.8 3.84e-02    -  1.00e+00 1.00e+00H  1
 137  1.1946879e+02 1.01e-10 6.40e-04  -6.8 2.79e-02    -  1.00e+00 1.00e+00H  1
 138  1.1946875e+02 9.11e-05 2.34e-03  -6.8 1.85e-02    -  7.86e-01 8.48e-01h  1
 139  1.1946872e+02 8.26e-05 1.62e-04  -6.8 1.33e-02    -  1.00e+00 1.00e+00f  1
iter    objective    inf_pr   inf_du lg(mu)  ||d||  lg(rg) alpha_du alpha_pr  ls
 140  1.1946878e+02 2.01e-06 2.35e-04  -6.8 3.24e-03    -  1.00e+00 1.00e+00h  1
 141  1.1946878e+02 2.41e-07 1.48e-04  -6.8 1.55e-03    -  1.00e+00 1.00e+00h  1
 142  1.1946878e+02 1.60e-07 1.86e-04  -6.8 1.60e-03    -  1.00e+00 1.00e+00h  1
 143  1.1946878e+02 1.63e-10 9.66e-05  -6.8 1.47e-03    -  1.00e+00 1.00e+00H  1
 144  1.1946878e+02 4.10e-05 8.86e-04  -6.8 1.30e-02    -  1.00e+00 1.00e+00h  1
 145  1.1946877e+02 2.92e-05 6.76e-04  -6.8 1.10e-02    -  1.00e+00 1.00e+00h  1
 146  1.1946876e+02 6.96e-05 8.78e-04  -6.8 1.07e-02    -  9.51e-01 1.00e+00h  1
 147  1.1946877e+02 3.11e-05 2.18e-04  -6.8 7.24e-03    -  1.00e+00 1.00e+00h  1
 148  1.1946878e+02 2.78e-06 2.22e-04  -6.8 3.36e-03    -  1.00e+00 1.00e+00h  1
 149  1.1946878e+02 5.12e-08 4.77e-04  -6.8 1.10e-02    -  1.00e+00 1.00e+00H  1
iter    objective    inf_pr   inf_du lg(mu)  ||d||  lg(rg) alpha_du alpha_pr  ls
 150  1.1946878e+02 3.18e-11 1.10e-03  -6.8 2.44e-02    -  1.00e+00 1.00e+00H  1
 151  1.1946878e+02 7.48e-11 2.81e-03  -6.8 2.87e-02    -  1.00e+00 7.62e-04h 11
 152  1.1946878e+02 1.78e-07 5.45e-04  -6.8 1.55e-02    -  1.00e+00 1.00e+00H  1
 153  1.1946878e+02 3.12e-06 2.28e-03  -6.8 3.29e-02    -  1.00e+00 1.13e-01h  4
 154  1.1946877e+02 9.15e-06 3.19e-04  -6.8 6.86e-03    -  1.00e+00 1.00e+00h  1
 155  1.1946877e+02 3.89e-05 5.96e-04  -6.8 1.50e-02    -  1.00e+00 1.00e+00h  1
 156  1.1946876e+02 2.96e-05 5.87e-04  -6.8 7.10e-03    -  1.00e+00 1.00e+00h  1
 157  1.1946878e+02 2.58e-08 3.63e-04  -6.8 5.91e-03    -  1.00e+00 1.00e+00H  1
 158  1.1946877e+02 1.91e-07 2.78e-04  -6.8 1.50e-03    -  1.00e+00 1.00e+00h  1
 159  1.1946877e+02 1.81e-07 4.05e-05  -6.8 1.01e-03    -  1.00e+00 1.00e+00h  1
iter    objective    inf_pr   inf_du lg(mu)  ||d||  lg(rg) alpha_du alpha_pr  ls
 160  1.1946877e+02 2.68e-08 2.25e-05  -6.8 6.44e-04    -  1.00e+00 1.00e+00h  1
 161  1.1946877e+02 3.77e-08 2.82e-04  -6.8 2.25e-02    -  1.00e+00 1.00e+00H  1
 162  1.1946877e+02 1.51e-06 1.87e-03  -6.8 3.81e-01    -  5.99e-01 1.34e-02h  6
 163  1.1946875e+02 2.06e-03 2.93e-03  -6.8 2.56e-01    -  1.00e+00 6.56e-01h  1
 164  1.1946859e+02 3.62e-04 3.40e-03  -6.8 3.67e-02    -  7.63e-01 1.00e+00h  1
 165  1.1946858e+02 7.18e-04 4.08e-03  -6.8 1.02e-01    -  3.69e-01 1.00e+00h  1
 166  1.1946858e+02 3.30e-04 4.05e-03  -6.8 4.20e-02    -  5.67e-01 5.62e-01h  1
 167  1.1946863e+02 1.18e-04 6.74e-03  -6.8 2.12e-02    -  4.64e-01 1.00e+00h  1
 168  1.1946875e+02 5.23e-05 2.30e-03  -6.8 9.06e-03    -  1.00e+00 1.00e+00h  1
 169  1.1946875e+02 1.74e-05 3.04e-04  -6.8 5.79e-03    -  1.00e+00 1.00e+00h  1
iter    objective    inf_pr   inf_du lg(mu)  ||d||  lg(rg) alpha_du alpha_pr  ls
 170  1.1946877e+02 6.02e-08 1.42e-04  -6.8 1.12e-03    -  1.00e+00 1.00e+00h  1
 171  1.1946877e+02 5.94e-09 4.11e-05  -6.8 2.43e-04    -  1.00e+00 1.00e+00h  1
 172  1.1946877e+02 2.25e-11 1.00e-04  -6.8 9.28e-04    -  1.00e+00 1.00e+00H  1
 173  1.1946877e+02 2.12e-11 3.81e-04  -6.8 6.65e-03    -  1.00e+00 1.00e+00H  1
 174  1.1946877e+02 2.23e-11 6.43e-04  -6.8 6.75e-03    -  1.00e+00 1.00e+00H  1
 175  1.1946877e+02 5.72e-11 7.66e-04  -6.8 4.69e-03    -  1.00e+00 1.00e+00H  1
 176  1.1946876e+02 2.63e-06 3.08e-04  -6.8 2.61e-03    -  1.00e+00 1.00e+00h  1
 177  1.1946877e+02 7.25e-11 1.09e-04  -6.8 2.28e-03    -  1.00e+00 1.00e+00H  1
 178  1.1946877e+02 2.13e-11 2.72e-04  -6.8 3.59e-03    -  1.00e+00 1.00e+00H  1
 179  1.1946877e+02 2.27e-11 2.61e-04  -6.8 5.72e-03    -  1.00e+00 1.00e+00H  1
iter    objective    inf_pr   inf_du lg(mu)  ||d||  lg(rg) alpha_du alpha_pr  ls
 180  1.1946877e+02 2.27e-11 8.13e-04  -6.8 1.20e-02    -  1.00e+00 1.00e+00H  1
 181  1.1946876e+02 5.83e-06 3.76e-04  -6.8 8.27e-03    -  1.00e+00 1.00e+00s 46
 182r 1.1946876e+02 5.83e-06 1.27e+03  -4.5 0.00e+00    -  0.00e+00 0.00e+00R  1
 183r 1.1946889e+02 4.83e-06 1.27e+03  -4.5 1.74e-01    -  9.36e-03 9.99e-04f  1
 184r 1.1946971e+02 1.48e-06 1.26e+03  -4.5 2.18e-02    -  1.09e-02 1.06e-02f  1
 185r 1.1947161e+02 4.41e-07 1.23e+03  -4.5 2.55e-02    -  2.17e-02 2.33e-02f  1
 186r 1.1947644e+02 1.89e-07 1.16e+03  -4.5 2.76e-02    -  5.73e-02 5.60e-02f  1
 187r 1.1948753e+02 7.54e-07 1.02e+03  -4.5 2.95e-02    -  9.16e-02 1.17e-01f  1
 188r 1.1953515e+02 1.18e-05 6.77e+02  -4.5 3.65e-02    -  2.50e-01 4.40e-01f  1
 189r 1.1963311e+02 4.77e-05 3.70e+02  -4.5 4.40e-02    -  4.21e-01 6.46e-01f  1
iter    objective    inf_pr   inf_du lg(mu)  ||d||  lg(rg) alpha_du alpha_pr  ls
 190r 1.1989513e+02 2.80e-04 2.69e+02  -4.5 7.43e-02    -  2.43e-01 9.86e-01f  1
 191r 1.2005352e+02 2.68e-05 1.08e+02  -4.5 1.30e-02    -  5.98e-01 1.00e+00h  1
 192r 1.2062637e+02 7.50e-04 4.46e+01  -4.5 9.12e-02    -  5.88e-01 1.00e+00h  1
 193r 1.2200176e+02 3.05e-03 2.12e+01  -4.5 1.41e-01    -  5.24e-01 1.00e+00h  1
 194r 1.2422203e+02 1.46e-02 9.07e+00  -4.5 1.53e-01    -  5.73e-01 1.00e+00h  1
 195r 1.2625891e+02 5.25e-02 1.06e+00  -4.5 1.69e-01    -  8.83e-01 1.00e+00h  1
 196r 1.2676220e+02 1.42e-02 3.03e-04  -4.5 7.19e-02    -  1.00e+00 1.00e+00h  1
 197r 1.2675946e+02 3.16e-04 5.83e-05  -4.5 1.36e-02    -  1.00e+00 1.00e+00h  1
 198r 1.2258552e+02 1.83e-01 7.04e-03  -6.7 2.81e-01    -  9.12e-01 1.00e+00f  1
 199r 1.2271465e+02 1.11e-03 6.76e-05  -6.7 1.98e-02    -  1.00e+00 1.00e+00h  1
iter    objective    inf_pr   inf_du lg(mu)  ||d||  lg(rg) alpha_du alpha_pr  ls
 200r 1.2196743e+02 9.24e-03 1.39e-04  -6.7 6.76e-02    -  1.00e+00 1.00e+00h  1
 201r 1.2164245e+02 1.01e-03 3.87e-05  -6.7 3.77e-02    -  1.00e+00 1.00e+00h  1
 202r 1.2146720e+02 1.15e-03 4.11e-05  -6.7 3.48e-02    -  1.00e+00 1.00e+00h  1
 203r 1.2132025e+02 9.13e-04 5.40e-05  -6.7 3.08e-02    -  1.00e+00 1.00e+00h  1
 204r 1.2129260e+02 1.10e-02 6.09e-05  -6.7 8.63e-02    -  7.53e-01 1.00e+00h  1
 205r 1.2132442e+02 2.50e-03 3.04e-06  -6.7 3.53e-02    -  1.00e+00 1.00e+00h  1
 206r 1.2133030e+02 3.97e-05 6.60e-07  -6.7 5.14e-03    -  1.00e+00 1.00e+00h  1
 207r 1.2133062e+02 1.34e-06 1.29e-07  -6.7 1.34e-03    -  1.00e+00 1.00e+00h  1
 208r 1.2080923e+02 6.37e-04 8.30e-06  -7.0 3.57e-02    -  1.00e+00 1.00e+00h  1
 209r 1.2096040e+02 8.32e-05 6.22e-07  -7.0 9.16e-03    -  1.00e+00 1.00e+00h  1
iter    objective    inf_pr   inf_du lg(mu)  ||d||  lg(rg) alpha_du alpha_pr  ls
 210r 1.2098417e+02 5.78e-06 1.09e-07  -7.0 2.43e-03    -  1.00e+00 1.00e+00h  1
 211r 1.2098395e+02 1.43e-07 3.30e-08  -7.0 3.85e-04    -  1.00e+00 1.00e+00h  1
 212r 1.2021016e+02 1.80e-03 8.46e-06  -9.0 6.02e-02    -  9.90e-01 1.00e+00f  1
 213r 1.2017693e+02 1.12e-04 2.48e-07  -9.0 6.51e-03    -  1.00e+00 1.00e+00h  1
 214r 1.2016155e+02 3.46e-06 2.84e-07  -9.0 1.44e-03  -4.0 1.00e+00 1.00e+00h  1
 215r 1.1986692e+02 1.65e-03 4.03e-07  -9.0 3.39e-02    -  1.00e+00 1.00e+00h  1
 216r 1.1993345e+02 3.89e-04 2.51e-07  -9.0 1.75e-02    -  8.99e-01 1.00e+00h  1
 217r 1.1993316e+02 3.11e-06 1.97e-07  -9.0 1.88e-03  -4.5 1.00e+00 1.00e+00h  1
 218r 1.1992452e+02 8.94e-07 2.67e-08  -9.0 1.57e-02    -  1.00e+00 1.00e+00H  1
 219r 1.1992510e+02 4.18e-08 4.91e-09  -9.0 2.29e-04  -4.6 1.00e+00 1.00e+00h  1
iter    objective    inf_pr   inf_du lg(mu)  ||d||  lg(rg) alpha_du alpha_pr  ls
 220r 1.1992738e+02 2.64e-07 2.36e-09  -9.0 4.72e-04    -  1.00e+00 1.00e+00h  1
Restoration phase converged to a feasible point that is
unacceptable to the filter for the original problem.
Restoration phase in the restoration phase failed.

Number of Iterations....: 220

                                   (scaled)                 (unscaled)
Objective...............:   1.1992733598139446e+02    1.1992733598139446e+02
Dual infeasibility......:   9.9999999884276065e+01    9.9999999884276065e+01
Constraint violation....:   4.5299883447406654e-10    4.5299883447406654e-10
Complementarity.........:   9.0909098609781762e-10    9.0909098609781762e-10
Overall NLP error.......:   9.9999999884276065e+01    9.9999999884276065e+01


Number of objective function evaluations             = 450
Number of objective gradient evaluations             = 184
Number of equality constraint evaluations            = 450
Number of inequality constraint evaluations          = 450
Number of equality constraint Jacobian evaluations   = 223
Number of inequality constraint Jacobian evaluations = 223
Number of Lagrangian Hessian evaluations             = 0
Total CPU secs in IPOPT (w/o function evaluations)   =    500.680
Total CPU secs in NLP function evaluations           =   1472.818

EXIT: Restoration Failed!
